# AA model for water

units           real	
atom_style      full
read_data       data.singleTIP4P05

mass           1 1.00794 # H
mass           2 15.9994 # O

pair_style lj/cut/tip4p/long 2 1 1 1 0.1546 12.0

pair_coeff 1 1 0.0 0.0   # Hw Hw 
pair_coeff 1 2 0.0 0.0	 # Hw Ow
pair_coeff 2 2 0.18520 3.1589  # Ow-Ow

bond_style harmonic
bond_coeff 1 0.0 0.9572

angle_style harmonic
angle_coeff 1 0.0 104.52 

pair_modify tail yes
#kspace_style pppm 1.0e-5
kspace_style	pppm/tip4p 1.0e-5
kspace_modify   order 5

replicate 8 8 8

variable        Text equal 270

group           oxygen type 2
group           hydrogen type 1

velocity        all create ${Text} 1234

neighbor        2.0 bin
neigh_modify    every 1 delay 0 check yes

timestep        2.0

variable   nH equal count(hydrogen)
variable   nO equal count(oxygen)
variable   mH2O equal (2*1.00794+15.9994) # H2O
variable   denwat equal (v_nO*v_mH2O*10)/(vol*6.023)
#fix loadBalance all balance 20 z 5 1.05
#fix   20 all balance 10000 0.9 shift xyz 20 1.1 out tmp.balance

compute h2oRDF all rdf 100 1 1 1 2 2 2 cutoff 10.0
fix    avgrdf all ave/time 100 100 10000 c_h2oRDF[*] file tmprdf.dat mode vector

compute onlyOw oxygen chunk/atom molecule
compute h2oMSD oxygen msd #msd/chunk #onlyOw #com yes average yes
fix     noavgmsd all ave/time 1000 1 1000 c_h2oMSD[*] file tmpmsd.dat #mode vector 

fix         constrain all shake 1.0e-4 100 0 b 1 a 1
fix         integrate all npt temp ${Text} ${Text} 10.0 iso 1.0 1.0 110

#variable        zPress equal c_thermo_press[3]
# Evaluate and average surface tension in mN/m:
#variable        st equal 0.5*lz*(v_zPress-0.5*(v_xPress+v_yPress))*${convFac}
#fix             st all ave/time ${Ne} ${Nr} ${Nf} v_st 
#variable        xyArea equal lx*ly

thermo_style    custom step temp press vol density v_denwat
thermo_modify   flush yes
thermo          5000


dump           1 all custom 1000 dump.lammpstrj id type xs ys zs 
dump_modify    1 sort id
restart        500000 x.rest
run 2000000
