# lammps inp

variable	t equal 300.0 
variable	tDamp equal 100.0 
variable        pDamp equal 1000.0

#Zbu = 16.875 ztb = 22.875 gap 6 
variable d equal 1.0 # displace atoms in upper sheet 

units		real	
atom_style	full
boundary        p p p

read_data       data.lammps_g2nm-5m
#read_restart   rest/x.rt-20000.23000000

### TIP4P/2005 and   ###
pair_style      lj/cut/tip4p/long 4 3 1 1 0.1546 12 8.5 # lj/cut/coul/long 8.5

pair_modify     tail yes mix arithmetic
kspace_style    pppm/tip4p 1e-4 # Default value from LAMMPS

bond_style      harmonic
angle_style     harmonic
bond_coeff  1 0.0 0.9572
angle_coeff 1 0.0 104.52


pair_coeff      1 1  0.1160 4.430  # Mo
pair_coeff      2 2  0.4980 3.340  # S

pair_coeff      3 3 0.0000 0.0000  # Hw Hw
pair_coeff      4 4 0.1852 3.1589  # Ow Ow
pair_coeff      3 4 0.0000 0.0000  # Hw Ow

pair_coeff      4 5 0.1896 2.6084  # Ow Cation 
pair_coeff      4 6 0.0148 4.2387  # Ow Anion 

pair_coeff      5 5  0.3519 2.2174 # Na  Cation
pair_coeff      6 6  0.0184 4.6991 # Cl  Anion
pair_coeff      5 6  0.3439 3.0051 # Cation Anion

#pair_modify     tail yes mix arithmetic

#reset_timestep 0

# create groups ###
group Mo type 1 
group S type 2 
group Ow type 4
group Hw type 3
group cation type 5
group anion type 6
group water type 3 4
group surface type 1 2 
group mobile type 3 4 5 6 
## set charges manually ###
set group Ow charge -1.1128
set group Hw charge  0.5564
set group Mo charge  0.50
set group S charge  -0.25
set group cation charge  1.70
set group anion charge  -0.85

################################################################

neighbor       2.0 bin
neigh_modify   exclude group surface surface check no
neigh_modify   every 2 delay 10 check no

# balance 
fix        bal all balance 1000 1.05 shift z 20 1.05

 velocity  mobile create ${t} 4928460 rot no dist gaussian # temp Twater
 velocity  mobile zero linear

compute         Twater mobile temp

fix     1 surface setforce 0.0 0.0 0.0
fix     2 water shake 0.0001 20 0 b 1 a 1 t 4 5
fix     3 mobile nvt temp ${t} ${t} ${tDamp} #x ${p} ${p} ${pDamp} dilate water
fix_modify 3 temp Twater

thermo          1000 
thermo_modify   flush yes norm no
thermo_style 	custom step temp c_Twater press pe etotal enthalpy pxx pyy pzz 

#dump          1 poreatoms custom 2000 dumpr-$p.lammpstrj id type xs ys zs
#dump_modify   1 sort id 

dump          2 all custom 1000 dump.lammpstrj id type xs ys zs
dump_modify   2 sort id

restart    1000000 x.re

timestep   1.0
run        1000000  

