# Lammps script file for water and ions

variable        Text equal 300

units           real	
atom_style      full
boundary        p p p

pair_style    lj/cut/tip4p/long 2 1 1 1 0.1546 12.0
pair_modify   tail yes mix arithmetic
bond_style    harmonic
angle_style   harmonic
kspace_style    pppm/tip4p 1.0e-5
kspace_modify   order 5

read_data       data-NaCl_3m.lammps2 

pair_coeff      1 2 0.0000 0.0000  # Hw Ow
pair_coeff      2 3 0.1896 2.6084   # Cation Ow
pair_coeff      2 4 0.0148 4.2387  # Anion  Ow
pair_coeff      3 4 0.3439 3.0051  # Cation Anion

group           oxygen type 2
group           hydrogen type 1
group           water type 1 2

velocity        all create ${Text} 1234

neighbor        2.0 bin
neigh_modify    every 1 delay 0 check yes

fix  20 all balance 10000 0.9 shift xyz 20 1.1 #out tmp.balance

compute   h2oRDF all rdf 100 2 2 1 2 2 3 2 4 cutoff 10.0
fix       avgrdf all ave/time 1000 500 500000 c_h2oRDF[*] file tmprdf.dat mode vector

#compute h2oMSD oxygen msd #msd/chunk #onlyOw #com yes average yes
#fix     noavgmsd all ave/time 100 1 100 c_h2oMSD[*] file tmpmsd.dat mode vector 

fix         constrain all shake 1.0e-4 100 0 b 1 a 1 t 1 2 
fix         integrate all npt temp ${Text} ${Text} 10.0 iso 1.0 1.0 1100

thermo          1000
thermo_style    custom step temp press vol density pe
thermo_modify   flush yes

dump           1 all custom 5000 dump.lammpstrj id type xs ys zs 
dump_modify    1 sort id
restart        100000 x.rest
timestep       2.0
run 	       2000000

